p cnf 855
-5 -73
-6 -79
-7 -82
-8 -85
-9 -88
-10 -91
-11 -94
-12 -97
-13 -100
-14 -103
-15 -106
-16 -109
-17 -112
-18 -115
-19 -118
-20 -121
-21 -124
-22 -127
-23 -130
-24 -133
-25 -136
-26 -139
-27 -142
-28 -145
-29 -148
-30 -151
-31 -154
-32 -157
-33 -160
-34 -163
-35 -166
-36 -169
-37 -172
-38 -175
-39 -179
-40 -183
-41 -187
-42 -191
-43 -195
-44 -199
-45 -203
-46 -207
-47 -211
-48 -215
-49 -219
-50 -223
-51 -227
-52 -231
-53 -235
-54 -239
-55 -243
-56 -247
-57 -251
-58 -255
-59 -259
-60 -263
-61 -267
-62 -271
-63 -275
-64 -279
-65 -283
-66 -287
-67 -291
-68 -295
-69 -299
-70 -3
-70 4
3 -4 70
-71 1
-71 70
-1 -70 71
-72 5
-72 -70
-5 70 72
-73 -71
-73 -72
71 72 73
-74 1
-74 -5
-1 5 74
-75 70
-75 74
-70 -74 75
-76 37
-76 75
-37 -75 76
-77 6
-77 -75
-6 75 77
-78 -76
-78 -77
76 77 78
-79 4
-79 78
-4 -78 79
-80 6
-80 75
-6 -75 80
-81 7
-81 -75
-7 75 81
-82 -80
-82 -81
80 81 82
-83 7
-83 75
-7 -75 83
-84 8
-84 -75
-8 75 84
-85 -83
-85 -84
83 84 85
-86 8
-86 75
-8 -75 86
-87 9
-87 -75
-9 75 87
-88 -86
-88 -87
86 87 88
-89 9
-89 75
-9 -75 89
-90 10
-90 -75
-10 75 90
-91 -89
-91 -90
89 90 91
-92 10
-92 75
-10 -75 92
-93 11
-93 -75
-11 75 93
-94 -92
-94 -93
92 93 94
-95 11
-95 75
-11 -75 95
-96 12
-96 -75
-12 75 96
-97 -95
-97 -96
95 96 97
-98 12
-98 75
-12 -75 98
-99 13
-99 -75
-13 75 99
-100 -98
-100 -99
98 99 100
-101 13
-101 75
-13 -75 101
-102 14
-102 -75
-14 75 102
-103 -101
-103 -102
101 102 103
-104 14
-104 75
-14 -75 104
-105 15
-105 -75
-15 75 105
-106 -104
-106 -105
104 105 106
-107 15
-107 75
-15 -75 107
-108 16
-108 -75
-16 75 108
-109 -107
-109 -108
107 108 109
-110 16
-110 75
-16 -75 110
-111 17
-111 -75
-17 75 111
-112 -110
-112 -111
110 111 112
-113 17
-113 75
-17 -75 113
-114 18
-114 -75
-18 75 114
-115 -113
-115 -114
113 114 115
-116 18
-116 75
-18 -75 116
-117 19
-117 -75
-19 75 117
-118 -116
-118 -117
116 117 118
-119 19
-119 75
-19 -75 119
-120 20
-120 -75
-20 75 120
-121 -119
-121 -120
119 120 121
-122 20
-122 75
-20 -75 122
-123 21
-123 -75
-21 75 123
-124 -122
-124 -123
122 123 124
-125 21
-125 75
-21 -75 125
-126 22
-126 -75
-22 75 126
-127 -125
-127 -126
125 126 127
-128 22
-128 75
-22 -75 128
-129 23
-129 -75
-23 75 129
-130 -128
-130 -129
128 129 130
-131 23
-131 75
-23 -75 131
-132 24
-132 -75
-24 75 132
-133 -131
-133 -132
131 132 133
-134 24
-134 75
-24 -75 134
-135 25
-135 -75
-25 75 135
-136 -134
-136 -135
134 135 136
-137 25
-137 75
-25 -75 137
-138 26
-138 -75
-26 75 138
-139 -137
-139 -138
137 138 139
-140 26
-140 75
-26 -75 140
-141 27
-141 -75
-27 75 141
-142 -140
-142 -141
140 141 142
-143 27
-143 75
-27 -75 143
-144 28
-144 -75
-28 75 144
-145 -143
-145 -144
143 144 145
-146 28
-146 75
-28 -75 146
-147 29
-147 -75
-29 75 147
-148 -146
-148 -147
146 147 148
-149 29
-149 75
-29 -75 149
-150 30
-150 -75
-30 75 150
-151 -149
-151 -150
149 150 151
-152 30
-152 75
-30 -75 152
-153 31
-153 -75
-31 75 153
-154 -152
-154 -153
152 153 154
-155 31
-155 75
-31 -75 155
-156 32
-156 -75
-32 75 156
-157 -155
-157 -156
155 156 157
-158 32
-158 75
-32 -75 158
-159 33
-159 -75
-33 75 159
-160 -158
-160 -159
158 159 160
-161 33
-161 75
-33 -75 161
-162 34
-162 -75
-34 75 162
-163 -161
-163 -162
161 162 163
-164 34
-164 75
-34 -75 164
-165 35
-165 -75
-35 75 165
-166 -164
-166 -165
164 165 166
-167 35
-167 75
-35 -75 167
-168 36
-168 -75
-36 75 168
-169 -167
-169 -168
167 168 169
-170 36
-170 75
-36 -75 170
-171 37
-171 -75
-37 75 171
-172 -170
-172 -171
170 171 172
-173 2
-173 80
-2 -80 173
-174 38
-174 -80
-38 80 174
-175 -173
-175 -174
173 174 175
-176 39
-176 -80
-39 80 176
-177 2
-177 83
-2 -83 177
-178 -83
-178 176
83 -176 178
-179 -177
-179 -178
177 178 179
-180 40
-180 -80
-40 80 180
-181 2
-181 86
-2 -86 181
-182 -86
-182 180
86 -180 182
-183 -181
-183 -182
181 182 183
-184 41
-184 -80
-41 80 184
-185 2
-185 89
-2 -89 185
-186 -89
-186 184
89 -184 186
-187 -185
-187 -186
185 186 187
-188 42
-188 -80
-42 80 188
-189 2
-189 92
-2 -92 189
-190 -92
-190 188
92 -188 190
-191 -189
-191 -190
189 190 191
-192 43
-192 -80
-43 80 192
-193 2
-193 95
-2 -95 193
-194 -95
-194 192
95 -192 194
-195 -193
-195 -194
193 194 195
-196 44
-196 -80
-44 80 196
-197 2
-197 98
-2 -98 197
-198 -98
-198 196
98 -196 198
-199 -197
-199 -198
197 198 199
-200 45
-200 -80
-45 80 200
-201 2
-201 101
-2 -101 201
-202 -101
-202 200
101 -200 202
-203 -201
-203 -202
201 202 203
-204 46
-204 -80
-46 80 204
-205 2
-205 104
-2 -104 205
-206 -104
-206 204
104 -204 206
-207 -205
-207 -206
205 206 207
-208 47
-208 -80
-47 80 208
-209 2
-209 107
-2 -107 209
-210 -107
-210 208
107 -208 210
-211 -209
-211 -210
209 210 211
-212 48
-212 -80
-48 80 212
-213 2
-213 110
-2 -110 213
-214 -110
-214 212
110 -212 214
-215 -213
-215 -214
213 214 215
-216 49
-216 -80
-49 80 216
-217 2
-217 113
-2 -113 217
-218 -113
-218 216
113 -216 218
-219 -217
-219 -218
217 218 219
-220 50
-220 -80
-50 80 220
-221 2
-221 116
-2 -116 221
-222 -116
-222 220
116 -220 222
-223 -221
-223 -222
221 222 223
-224 51
-224 -80
-51 80 224
-225 2
-225 119
-2 -119 225
-226 -119
-226 224
119 -224 226
-227 -225
-227 -226
225 226 227
-228 52
-228 -80
-52 80 228
-229 2
-229 122
-2 -122 229
-230 -122
-230 228
122 -228 230
-231 -229
-231 -230
229 230 231
-232 53
-232 -80
-53 80 232
-233 2
-233 125
-2 -125 233
-234 -125
-234 232
125 -232 234
-235 -233
-235 -234
233 234 235
-236 54
-236 -80
-54 80 236
-237 2
-237 128
-2 -128 237
-238 -128
-238 236
128 -236 238
-239 -237
-239 -238
237 238 239
-240 55
-240 -80
-55 80 240
-241 2
-241 131
-2 -131 241
-242 -131
-242 240
131 -240 242
-243 -241
-243 -242
241 242 243
-244 56
-244 -80
-56 80 244
-245 2
-245 134
-2 -134 245
-246 -134
-246 244
134 -244 246
-247 -245
-247 -246
245 246 247
-248 57
-248 -80
-57 80 248
-249 2
-249 137
-2 -137 249
-250 -137
-250 248
137 -248 250
-251 -249
-251 -250
249 250 251
-252 58
-252 -80
-58 80 252
-253 2
-253 140
-2 -140 253
-254 -140
-254 252
140 -252 254
-255 -253
-255 -254
253 254 255
-256 59
-256 -80
-59 80 256
-257 2
-257 143
-2 -143 257
-258 -143
-258 256
143 -256 258
-259 -257
-259 -258
257 258 259
-260 60
-260 -80
-60 80 260
-261 2
-261 146
-2 -146 261
-262 -146
-262 260
146 -260 262
-263 -261
-263 -262
261 262 263
-264 61
-264 -80
-61 80 264
-265 2
-265 149
-2 -149 265
-266 -149
-266 264
149 -264 266
-267 -265
-267 -266
265 266 267
-268 62
-268 -80
-62 80 268
-269 2
-269 152
-2 -152 269
-270 -152
-270 268
152 -268 270
-271 -269
-271 -270
269 270 271
-272 63
-272 -80
-63 80 272
-273 2
-273 155
-2 -155 273
-274 -155
-274 272
155 -272 274
-275 -273
-275 -274
273 274 275
-276 64
-276 -80
-64 80 276
-277 2
-277 158
-2 -158 277
-278 -158
-278 276
158 -276 278
-279 -277
-279 -278
277 278 279
-280 65
-280 -80
-65 80 280
-281 2
-281 161
-2 -161 281
-282 -161
-282 280
161 -280 282
-283 -281
-283 -282
281 282 283
-284 66
-284 -80
-66 80 284
-285 2
-285 164
-2 -164 285
-286 -164
-286 284
164 -284 286
-287 -285
-287 -286
285 286 287
-288 67
-288 -80
-67 80 288
-289 2
-289 167
-2 -167 289
-290 -167
-290 288
167 -288 290
-291 -289
-291 -290
289 290 291
-292 68
-292 -80
-68 80 292
-293 2
-293 170
-2 -170 293
-294 -170
-294 292
170 -292 294
-295 -293
-295 -294
293 294 295
-296 69
-296 -80
-69 80 296
-297 2
-297 76
-2 -76 297
-298 -76
-298 296
76 -296 298
-299 -297
-299 -298
297 298 299
-300 6
-300 70
-6 -70 300
-301 38
-301 -39
-38 39 301
-302 40
-302 -41
-40 41 302
-303 42
-303 43
-42 -43 303
-304 -44
-304 45
44 -45 304
-305 46
-305 47
-46 -47 305
-306 48
-306 49
-48 -49 306
-307 50
-307 -51
-50 51 307
-308 -52
-308 -53
52 53 308
-309 -54
-309 55
54 -55 309
-310 -56
-310 57
56 -57 310
-311 -58
-311 59
58 -59 311
-312 -60
-312 -61
60 61 312
-313 -62
-313 63
62 -63 313
-314 -64
-314 65
64 -65 314
-315 66
-315 -67
-66 67 315
-316 -68
-316 -69
68 69 316
-317 301
-317 302
-301 -302 317
-318 303
-318 304
-303 -304 318
-319 305
-319 306
-305 -306 319
-320 307
-320 308
-307 -308 320
-321 309
-321 310
-309 -310 321
-322 311
-322 312
-311 -312 322
-323 313
-323 314
-313 -314 323
-324 315
-324 316
-315 -316 324
-325 317
-325 318
-317 -318 325
-326 319
-326 320
-319 -320 326
-327 321
-327 322
-321 -322 327
-328 323
-328 324
-323 -324 328
-329 325
-329 326
-325 -326 329
-330 327
-330 328
-327 -328 330
-331 329
-331 330
-329 -330 331
-332 300
-332 331
-300 -331 332
332
